p td 22 168
2 1
3 2
3 1
4 1
5 1
5 4
6 4
6 3
6 1
6 5
6 2
7 4
7 2
7 6
7 1
7 5
8 2
8 5
8 7
8 1
8 6
9 8
9 7
9 1
9 6
9 2
9 5
10 2
10 6
10 5
10 9
10 8
11 9
11 7
11 8
11 5
11 2
11 10
11 3
12 3
12 9
12 2
12 6
12 11
12 10
12 8
12 5
12 4
13 5
13 3
13 2
13 8
13 10
13 1
13 9
13 11
13 6
13 4
13 7
14 12
14 10
14 8
14 5
14 7
14 6
14 9
14 13
15 14
15 9
15 12
15 7
15 2
15 8
15 3
15 5
15 10
16 1
16 9
16 12
16 7
16 8
16 14
16 4
16 10
16 13
16 5
16 3
17 12
17 4
17 2
17 15
17 5
17 9
17 7
17 11
17 1
17 3
17 16
17 13
18 16
18 8
18 6
18 1
18 14
18 17
18 3
18 13
18 2
18 15
18 9
18 10
19 11
19 12
19 2
19 16
19 3
19 6
19 8
19 1
19 14
19 15
19 17
19 10
19 7
20 3
20 17
20 5
20 6
20 2
20 8
20 9
20 16
20 4
20 11
20 15
20 10
20 7
20 12
20 18
20 14
20 19
21 15
21 13
21 3
21 16
21 5
21 18
21 19
21 20
21 4
21 9
21 10
21 11
21 8
22 16
22 12
22 19
22 6
22 2
22 4
22 17
22 14
22 9
22 3
22 20
22 21
22 13
22 11
